(declare-const X String)
; User-Agent\x3A\d+moreKontikiHost\x3a
(assert (str.in_re X (re.++ (str.to_re "User-Agent:") (re.+ (re.range "0" "9")) (str.to_re "moreKontikiHost:\u{a}"))))
; ([a-zA-Z0-9_\-\.]+)(@[a-zA-Z0-9_\-\.]+)
(assert (not (str.in_re X (re.++ (re.+ (re.union (re.range "a" "z") (re.range "A" "Z") (re.range "0" "9") (str.to_re "_") (str.to_re "-") (str.to_re "."))) (str.to_re "\u{a}@") (re.+ (re.union (re.range "a" "z") (re.range "A" "Z") (re.range "0" "9") (str.to_re "_") (str.to_re "-") (str.to_re ".")))))))
; /filename=[^\n]*\x2epaq8o/i
(assert (not (str.in_re X (re.++ (str.to_re "/filename=") (re.* (re.comp (str.to_re "\u{a}"))) (str.to_re ".paq8o/i\u{a}")))))
; kl\x2Esearch\x2Eneed2find\x2Ecom\ssource%3Dultrasearch136%26campaign%3Dsnap
(assert (not (str.in_re X (re.++ (str.to_re "kl.search.need2find.com") (re.union (str.to_re " ") (str.to_re "\u{9}") (str.to_re "\u{a}") (str.to_re "\u{c}") (str.to_re "\u{d}")) (str.to_re "source%3Dultrasearch136%26campaign%3Dsnap\u{a}")))))
(check-sat)
